SDVRP instances/p03/p03_1030_tsplib0_split0.vrp
NAME:.\SDVRP_split
BEST_KNOWN: 0
COMMENT: 0
DIMENSION: 412
CAPACITY: 200
EDGE_WEIGHT_FORMAT: FUNCTION
EDGE_WEIGHT_TYPE: EXACT_2D
NODE_COORD_SECTION
1 0.00000 0.00000
2 6 14
3 6 14
4 6 14
5 6 14
6 0 -18
7 0 -18
8 0 -18
9 0 -18
10 0 -18
11 20 10
12 20 10
13 20 10
14 20 10
15 20 10
16 20 10
17 20 -15
18 20 -15
19 -20 -5
20 -20 -5
21 -20 -5
22 -20 -5
23 -20 -5
24 -10 -5
25 -10 -5
26 -10 -5
27 -10 -5
28 -15 15
29 -15 15
30 -15 15
31 -15 15
32 -15 15
33 -15 15
34 -15 15
35 -25 8
36 -25 8
37 -25 8
38 20 25
39 20 25
40 20 25
41 20 25
42 20 25
43 -5 25
44 -5 25
45 -15 30
46 -15 30
47 -15 30
48 15 0
49 15 0
50 15 0
51 15 0
52 15 0
53 -5 -10
54 -5 -10
55 -5 -10
56 -5 -10
57 -5 -10
58 -5 -10
59 -20 -25
60 -5 -30
61 -5 -30
62 -5 -30
63 -5 -30
64 -5 -30
65 -25 -15
66 -25 -15
67 -25 -15
68 -30 -5
69 -30 -5
70 -30 -5
71 -15 5
72 -20 25
73 -20 25
74 -20 25
75 -20 25
76 10 30
77 10 30
78 10 -15
79 10 -15
80 10 -15
81 10 -25
82 10 -25
83 10 -25
84 10 -25
85 20 -30
86 20 -30
87 20 -30
88 20 -30
89 30 0
90 30 0
91 30 0
92 30 -15
93 30 -15
94 30 -15
95 10 -5
96 10 -5
97 10 -5
98 10 -5
99 10 -5
100 10 -5
101 0 5
102 0 5
103 6 2
104 6 2
105 6 2
106 29 7
107 29 7
108 29 7
109 29 7
110 5 25
111 5 25
112 5 25
113 -4 17
114 -4 17
115 -4 17
116 -4 17
117 0 34
118 0 34
119 0 34
120 18 17
121 18 17
122 18 17
123 18 17
124 30 20
125 30 20
126 30 20
127 30 20
128 30 20
129 28 30
130 28 30
131 28 30
132 28 30
133 -33 25
134 -33 25
135 -33 25
136 -33 25
137 -33 25
138 -33 25
139 -33 25
140 -15 -15
141 -15 -15
142 -15 -15
143 -30 -30
144 -30 -30
145 -30 -30
146 -30 -30
147 -30 -30
148 -30 -30
149 -30 -30
150 25 -23
151 25 -23
152 25 -23
153 25 -23
154 25 -23
155 25 -23
156 25 -23
157 5 -10
158 5 -10
159 5 -10
160 5 -10
161 7 -28
162 7 -28
163 7 -28
164 7 -28
165 7 -28
166 -11 -23
167 -11 -23
168 -12 -32
169 -12 -32
170 -12 -32
171 -12 -32
172 -24 -21
173 -24 -21
174 -24 -21
175 -24 -21
176 -29 3
177 -29 3
178 -29 3
179 -29 3
180 -29 3
181 -33 13
182 -33 13
183 -33 13
184 -27 21
185 -27 21
186 -27 21
187 -27 21
188 -27 21
189 -27 21
190 -27 21
191 -22 17
192 -22 17
193 -22 17
194 -22 17
195 -22 17
196 -22 17
197 -29 33
198 -29 33
199 -29 33
200 -29 33
201 12 12
202 12 12
203 12 12
204 14 23
205 14 23
206 14 23
207 14 23
208 -8 8
209 -8 8
210 -8 8
211 -8 8
212 2 -4
213 2 -4
214 2 -4
215 22 -6
216 22 -6
217 22 -6
218 22 -6
219 22 -6
220 28 -12
221 28 -12
222 28 -12
223 28 -12
224 28 -12
225 28 -12
226 18 -23
227 18 -23
228 18 -23
229 18 -23
230 18 -23
231 18 -23
232 -3 -23
233 -3 -23
234 -3 -23
235 1 -9
236 1 -9
237 1 -9
238 1 -9
239 1 -9
240 -14 -11
241 -14 -11
242 -14 -11
243 -14 -11
244 -14 -11
245 -18 -1
246 -18 -1
247 -18 -1
248 -18 -1
249 -23 -11
250 -23 -11
251 -23 -11
252 -23 -11
253 -23 -11
254 -11 23
255 -11 23
256 -8 34
257 -8 34
258 -8 34
259 -20 42
260 -20 42
261 -20 42
262 27 42
263 27 42
264 27 42
265 27 42
266 14 38
267 14 38
268 14 38
269 14 38
270 14 38
271 14 38
272 14 38
273 32 -30
274 32 -30
275 32 -30
276 32 -30
277 21 4
278 21 4
279 21 4
280 2 12
281 2 12
282 2 12
283 2 12
284 2 12
285 2 12
286 2 12
287 2 21
288 2 21
289 2 21
290 2 21
291 22 33
292 22 33
293 22 33
294 22 33
295 22 33
296 22 33
297 12 -19
298 12 -19
299 12 -19
300 12 -19
301 12 -19
302 9 -18
303 9 -18
304 9 -18
305 9 -18
306 11 -22
307 11 -22
308 11 -22
309 11 -22
310 11 -22
311 11 -22
312 11 -22
313 14 -24
314 14 -24
315 14 7
316 14 7
317 14 7
318 14 7
319 18 8
320 18 8
321 18 8
322 26 17
323 26 17
324 26 17
325 26 17
326 26 17
327 22 13
328 22 13
329 21 2
330 21 2
331 21 2
332 20 19
333 20 19
334 20 19
335 20 19
336 -20 12
337 -20 12
338 -20 12
339 -21 2
340 -21 2
341 -21 2
342 -21 2
343 -21 2
344 -24 -4
345 -24 -4
346 -24 -4
347 -24 -4
348 -19 -13
349 -19 -13
350 -19 -13
351 -19 -13
352 -19 -13
353 -19 -13
354 -19 -13
355 -31 -17
356 -31 -17
357 -31 -17
358 -7 -17
359 -7 -17
360 -7 -17
361 -7 -17
362 -7 -17
363 -7 -17
364 -7 -17
365 -9 17
366 -9 17
367 -9 17
368 -9 0
369 -9 0
370 -9 0
371 -9 0
372 -4 32
373 -4 32
374 -4 32
375 -20 -16
376 -20 -16
377 -20 -16
378 -13 -13
379 -13 -13
380 -13 -13
381 -17 -11
382 -17 -11
383 -17 -11
384 -17 -11
385 -17 -11
386 -9 -8
387 -9 -8
388 -9 -8
389 -9 -8
390 -9 -8
391 -9 -8
392 -10 -11
393 -10 -11
394 -10 -11
395 -10 -11
396 -10 -11
397 -13 -8
398 -13 -8
399 -13 -8
400 -10 -14
401 -10 -14
402 -16 -14
403 -16 -14
404 -16 -14
405 -16 -14
406 -16 -14
407 -16 -14
408 -15 -9
409 -15 -9
410 -17 -17
411 -17 -17
412 -17 -17
DEMAND_SECTION
1 0
2 40
3 10
4 2
5 2
6 20
7 10
8 2
9 2
10 1
11 20
12 2
13 2
14 2
15 2
16 1
17 40
18 2
19 40
20 10
21 2
22 2
23 2
24 40
25 10
26 2
27 2
28 20
29 10
30 2
31 2
32 2
33 2
34 1
35 20
36 2
37 2
38 20
39 2
40 2
41 2
42 2
43 20
44 1
45 40
46 10
47 2
48 20
49 10
50 2
51 2
52 1
53 20
54 10
55 2
56 2
57 2
58 2
59 40
60 40
61 2
62 2
63 2
64 2
65 20
66 10
67 1
68 20
69 2
70 1
71 40
72 40
73 10
74 2
75 2
76 40
77 1
78 20
79 2
80 2
81 40
82 2
83 2
84 1
85 40
86 2
87 2
88 2
89 40
90 2
91 1
92 40
93 10
94 1
95 40
96 2
97 2
98 2
99 2
100 1
101 20
102 1
103 40
104 10
105 1
106 20
107 2
108 2
109 2
110 20
111 2
112 2
113 40
114 10
115 2
116 2
117 40
118 10
119 2
120 40
121 10
122 2
123 1
124 20
125 2
126 2
127 2
128 2
129 40
130 10
131 2
132 1
133 20
134 10
135 2
136 2
137 2
138 2
139 1
140 40
141 10
142 1
143 20
144 10
145 2
146 2
147 2
148 2
149 1
150 20
151 10
152 2
153 2
154 2
155 2
156 1
157 40
158 10
159 2
160 1
161 20
162 2
163 2
164 2
165 1
166 20
167 2
168 40
169 2
170 2
171 1
172 40
173 2
174 2
175 2
176 40
177 10
178 2
179 2
180 1
181 20
182 10
183 1
184 20
185 10
186 2
187 2
188 2
189 2
190 1
191 20
192 10
193 2
194 2
195 2
196 1
197 40
198 10
199 2
200 1
201 40
202 2
203 2
204 40
205 2
206 2
207 2
208 40
209 2
210 2
211 2
212 20
213 2
214 1
215 40
216 10
217 2
218 2
219 2
220 40
221 2
222 2
223 2
224 2
225 1
226 40
227 2
228 2
229 2
230 2
231 1
232 20
233 10
234 2
235 40
236 2
237 2
238 2
239 2
240 20
241 10
242 2
243 2
244 2
245 20
246 10
247 2
248 1
249 40
250 10
251 2
252 2
253 1
254 20
255 10
256 20
257 10
258 2
259 20
260 10
261 1
262 20
263 10
264 2
265 2
266 20
267 10
268 2
269 2
270 2
271 2
272 1
273 40
274 10
275 2
276 2
277 20
278 2
279 1
280 40
281 10
282 2
283 2
284 2
285 2
286 1
287 40
288 10
289 2
290 2
291 40
292 10
293 2
294 2
295 2
296 1
297 40
298 10
299 2
300 2
301 1
302 40
303 10
304 2
305 1
306 40
307 10
308 2
309 2
310 2
311 2
312 1
313 20
314 2
315 20
316 10
317 2
318 1
319 40
320 2
321 1
322 40
323 2
324 2
325 2
326 2
327 40
328 2
329 40
330 10
331 2
332 40
333 2
334 2
335 2
336 20
337 10
338 1
339 40
340 2
341 2
342 2
343 1
344 40
345 2
346 2
347 1
348 40
349 10
350 2
351 2
352 2
353 2
354 1
355 40
356 10
357 1
358 40
359 10
360 2
361 2
362 2
363 2
364 1
365 40
366 10
367 2
368 40
369 10
370 2
371 2
372 20
373 2
374 2
375 40
376 10
377 2
378 40
379 2
380 1
381 20
382 2
383 2
384 2
385 1
386 40
387 10
388 2
389 2
390 2
391 1
392 40
393 2
394 2
395 2
396 1
397 40
398 10
399 1
400 40
401 10
402 20
403 10
404 2
405 2
406 2
407 1
408 40
409 10
410 20
411 2
412 2
DEPOT_SECTION
1
-1
EOF