SDVRP instances/p03/p03_1030_tsplib0_split0.sol
411 -3 4 109 111 110 118 116 117 372 371 373 42 43 113 114 115 112 100 101 -17 16 155 151 154 150 149 152 153 274 275 272 273 84 85 86 87 226 229 228 227 -24 18 19 22 20 21 342 340 339 338 341 244 245 246 247 370 369 367 368 -26 23 25 397 398 396 408 407 385 386 -35 36 34 180 181 182 178 177 179 175 176 69 67 68 346 345 343 344 -39 38 41 40 37 295 290 292 294 293 291 262 264 261 263 271 267 269 270 268 266 265 76 75 -49 50 51 48 47 215 218 214 217 216 220 222 221 223 224 219 92 91 93 98 96 95 97 99 -54 57 55 56 52 53 360 363 362 359 358 361 357 399 400 395 393 394 391 392 -58 144 143 148 142 147 146 145 354 355 356 172 174 171 173 409 411 410 -70 335 336 337 193 190 191 31 30 33 32 29 28 27 207 209 210 208 -73 71 74 72 44 46 45 253 254 365 364 366 -77 79 78 296 299 298 297 300 303 304 302 301 159 157 156 158 -103 104 102 94 234 236 212 213 211 -131 130 129 128 125 124 126 127 123 324 321 323 325 322 327 326 12 15 11 316 -163 161 164 160 162 83 81 82 80 312 313 225 230 307 309 311 306 310 308 305 -165 166 169 167 168 170 63 60 61 62 59 231 233 232 9 5 6 8 7 235 238 237 -195 194 192 189 188 185 183 186 187 184 136 133 137 134 138 135 132 198 196 197 199 260 259 258 255 256 257 -201 200 202 1 2 287 289 286 288 279 281 285 282 284 283 -239 243 240 241 242 383 382 380 406 401 402 404 405 403 139 141 140 377 379 378 387 389 388 390 -250 251 249 252 248 65 64 66 376 375 374 347 353 348 351 349 352 350 384 381 -276 278 277 328 329 330 89 88 90 108 107 106 105 14 13 10 315 317 314 -280 204 205 203 206 332 333 334 331 119 121 120 122 318 320 319 0 





OBJ=
1505.599
BEST_KNOWN=
0.000